Gurobi Optimizer version 9.1.2 build v9.1.2rc0 (linux64)
Thread count: 36 physical cores, 72 logical processors, using up to 32 threads
Optimize a model with 12 rows, 57 columns and 590 nonzeros
Model fingerprint: 0xf32eec78
Model has 47 quadratic constraints
Coefficient statistics:
  Matrix range     [2e-05, 3e+00]
  QMatrix range    [1e+00, 1e+00]
  QLMatrix range   [1e+00, 1e+00]
  Objective range  [8e-03, 7e-01]
  Bounds range     [1e+00, 1e+00]
  RHS range        [1e+00, 1e+00]
Presolve removed 9 rows and 0 columns

Continuous model is non-convex -- solving as a MIP.

Presolve removed 9 rows and 0 columns
Presolve time: 0.00s
Presolved: 189 rows, 57 columns, 443 nonzeros
Presolved model has 47 bilinear constraint(s)
Variable types: 57 continuous, 0 integer (0 binary)

Root relaxation: objective -1.743721e+00, 44 iterations, 0.00 seconds

    Nodes    |    Current Node    |     Objective Bounds      |     Work
 Expl Unexpl |  Obj  Depth IntInf | Incumbent    BestBd   Gap | It/Node Time

     0     0   -1.74372    0   38          -   -1.74372      -     -    0s
H    0     0                       0.6147548   -1.74372   384%     -    0s
     0     0   -1.64739    0    1    0.61475   -1.64739   368%     -    0s
H    0     0                      -1.6450460   -1.64739  0.14%     -    0s
     0     0     cutoff    0        -1.64505   -1.64505  0.00%     -    0s

Cutting planes:
  RLT: 25
  BQP: 3

Explored 1 nodes (76 simplex iterations) in 0.01 seconds
Thread count was 32 (of 72 available processors)

Solution count 2: -1.64505 0.614755 
No other solutions better than -1.64505

Optimal solution found (tolerance 1.00e-04)
Best objective -1.645045978473e+00, best bound -1.645045978473e+00, gap 0.0000%

User-callback calls 78, time in user-callback 0.00 sec
Gurobi Optimizer version 9.1.2 build v9.1.2rc0 (linux64)
Thread count: 36 physical cores, 72 logical processors, using up to 32 threads
Optimize a model with 60 rows, 312 columns and 16100 nonzeros
Model fingerprint: 0x8e931bef
Model has 262 quadratic constraints
Coefficient statistics:
  Matrix range     [4e-07, 7e+00]
  QMatrix range    [1e+00, 1e+00]
  QLMatrix range   [1e+00, 1e+00]
  Objective range  [2e-03, 9e-01]
  Bounds range     [1e+00, 1e+00]
  RHS range        [1e+00, 1e+00]
Presolve removed 15 rows and 0 columns

Continuous model is non-convex -- solving as a MIP.

Presolve removed 15 rows and 0 columns
Presolve time: 0.01s
Presolved: 1081 rows, 312 columns, 13448 nonzeros
Presolved model has 262 bilinear constraint(s)
Variable types: 312 continuous, 0 integer (0 binary)

Root relaxation: objective -1.667936e+01, 367 iterations, 0.02 seconds

    Nodes    |    Current Node    |     Objective Bounds      |     Work
 Expl Unexpl |  Obj  Depth IntInf | Incumbent    BestBd   Gap | It/Node Time

     0     0  -16.67936    0  189          -  -16.67936      -     -    0s
     0     0  -16.17432    0   39          -  -16.17432      -     -    0s
     0     0  -16.14074    0   72          -  -16.14074      -     -    0s
     0     0  -16.05656    0   69          -  -16.05656      -     -    0s
     0     0  -16.05547    0   69          -  -16.05547      -     -    0s
     0     0  -16.03497    0   29          -  -16.03497      -     -    0s
     0     0  -16.03423    0   37          -  -16.03423      -     -    0s
     0     0  -16.03367    0   37          -  -16.03367      -     -    0s
     0     0  -16.03337    0   29          -  -16.03337      -     -    0s
     0     0  -16.03243    0   37          -  -16.03243      -     -    0s
     0     0  -16.03241    0   37          -  -16.03241      -     -    0s
     0     0  -16.03170    0   37          -  -16.03170      -     -    0s
     0     0  -16.03158    0   37          -  -16.03158      -     -    0s
     0     0  -16.03141    0   37          -  -16.03141      -     -    0s
     0     0  -16.03123    0   36          -  -16.03123      -     -    0s
     0     0  -16.03119    0   37          -  -16.03119      -     -    0s
     0     2  -16.03119    0   37          -  -16.03119      -     -    0s
* 2250  1966              45     -15.1720171  -15.76351  3.90%  36.4    1s
* 2600  1864              56     -15.3865047  -15.75290  2.38%  34.9    1s
* 3052  1894              54     -15.6381126  -15.75290  0.73%  34.3    1s
* 5319   258              58     -15.6384716  -15.75290  0.73%  34.2    3s
* 5449   272              59     -15.6384754  -15.75290  0.73%  33.9    3s
* 5451   272              59     -15.6385344  -15.75290  0.73%  33.9    3s
* 5452   272              59     -15.6385348  -15.75290  0.73%  33.9    3s
* 5993   408              58     -15.6385423  -15.75290  0.73%  32.5    3s
* 5995   408              59     -15.6385477  -15.75290  0.73%  32.5    3s
* 6154   437              64     -15.6386176  -15.75290  0.73%  32.2    3s
* 6613   740              68     -15.6390180  -15.75290  0.73%  31.2    3s
* 6795   843              73     -15.6390449  -15.75290  0.73%  30.7    3s
* 6848   843              61     -15.6391239  -15.75290  0.73%  30.6    3s
* 6999   967              58     -15.6398706  -15.75290  0.72%  30.3    3s
* 7196  1103              61     -15.6399162  -15.75290  0.72%  29.9    3s
* 7198  1103              62     -15.6399162  -15.75290  0.72%  29.9    3s
* 7316  1252              66     -15.6427617  -15.75290  0.70%  29.7    4s
* 7333  1252              83     -15.6446321  -15.75290  0.69%  29.6    4s
* 7334  1252              83     -15.6446321  -15.75290  0.69%  29.6    4s
* 7968  1768              65     -15.6447221  -15.75128  0.68%  28.3    4s
* 7969  1768              65     -15.6447370  -15.75128  0.68%  28.3    4s
* 7982  1768              70     -15.6456122  -15.75128  0.68%  28.3    4s
* 8249  1971              70     -15.6456231  -15.75128  0.68%  27.7    4s
* 8353  1971              83     -15.6515194  -15.75128  0.64%  27.6    4s
* 8482  1971              65     -15.6640945  -15.75128  0.56%  27.4    4s
* 8621  1831              71     -15.6835218  -15.75128  0.43%  27.2    4s
* 9932  1820              73     -15.6838351  -15.71772  0.22%  25.6    4s
*10127  1820              79     -15.6846527  -15.71772  0.21%  25.3    4s
*10128  1820              79     -15.6846548  -15.71772  0.21%  25.3    4s
*10129  1820              78     -15.6846552  -15.71772  0.21%  25.3    4s
*10130  1820              77     -15.6847969  -15.71772  0.21%  25.3    4s
*10629  1926              58     -15.6848084  -15.71298  0.18%  24.5    4s
*10730  1926              64     -15.6850476  -15.71298  0.18%  24.4    4s
*10737  1926              66     -15.6850528  -15.71298  0.18%  24.4    4s
*10739  1926              65     -15.6850529  -15.71298  0.18%  24.4    4s
*11132  1879              69     -15.6850716  -15.70701  0.14%  23.9    4s
*11134  1879              68     -15.6851543  -15.70701  0.14%  23.9    4s
 11351  1947     cutoff   31       -15.68515  -15.70484  0.13%  23.6    5s
*11507  1947              68     -15.6851544  -15.70484  0.13%  23.4    5s
*11518  1947              71     -15.6852050  -15.70484  0.13%  23.4    5s
*11519  1947              71     -15.6852086  -15.70484  0.13%  23.4    5s
*11660  1947              62     -15.6861508  -15.70484  0.12%  23.2    5s
*11661  1947              62     -15.6861520  -15.70484  0.12%  23.2    5s
*11663  1947              62     -15.6861908  -15.70484  0.12%  23.2    5s
*12181  2034              61     -15.6885445  -15.70290  0.09%  22.7    5s
*13228  1823              70     -15.6892695  -15.69438  0.03%  21.6    5s
*13829  1632              79     -15.6893826  -15.69230  0.02%  21.0    5s
*13985  1632              72     -15.6894681  -15.69230  0.02%  20.8    5s
*14478  1351              73     -15.6894683  -15.69205  0.02%  20.3    5s
*15072  1023              72     -15.6894690  -15.69205  0.02%  19.7    5s
*15522  1023              68     -15.6894694  -15.69205  0.02%  19.2    5s
*15885   930              66     -15.6894717  -15.69080  0.01%  18.8    5s
*15916   930              65     -15.6894768  -15.69080  0.01%  18.8    5s
*15922   930              67     -15.6894791  -15.69080  0.01%  18.8    5s
*15925   930              68     -15.6894793  -15.69080  0.01%  18.8    5s

Explored 16450 nodes (301829 simplex iterations) in 5.72 seconds
Thread count was 32 (of 72 available processors)

Solution count 10: -15.6895 -15.6895 -15.6895 ... -15.6893

Optimal solution found (tolerance 1.00e-04)
Best objective -1.568947930201e+01, best bound -1.569079572699e+01, gap 0.0084%

User-callback calls 33906, time in user-callback 0.01 sec



objective value: -15.689479302006003
objective bound: -15.69079572699008
x_opt: [1.0, 1.0, 0.0, 0.35670250535958975, 0.0, 0.0, 1.0, 0.0, 0.0, 0.0, 1.0, 0.0, 1.0, 1.0, 0.09881498522786905, 1.0, 0.0, 1.0, 0.0, 0.0, 1.0, 0.6996879102015354, 0.0, 0.8259778590170109, 0.0, 0.8481597023457934, 0.0, 1.0, 0.0, 0.0, 0.9879578394551964, 0.885458648967257, 0.0, 0.3614348337780959, 1.0, 1.0, 0.05436943273257317, 1.0, 0.0, 0.8087896148246412, 1.0, 0.0, 1.0, 0.0, 0.0, 0.0931590558298177, 0.9284120910969469, 0.0, 0.9999999999999999, 0.17522138502485532]
GUROBI solution time: 5.717648983001709




